NAME : random_10
COMMENT : 35 random nodes
TYPE : TSP
DIMENSION : 35
EDGE_WEIGHT_TYPE : EUC_2D
NODE_COORD_SECTION
1 -1743 3930
2 -2020 -652
3 -1914 599
4 -181 -1785
5 2846 1312
6 631 1015
7 2670 4122
8 -2705 -1009
9 593 -2412
10 617 4000
11 4069 1954
12 3740 -1879
13 2068 -625
14 -1187 11
15 -258 -1696
16 3779 1705
17 -1020 1035
18 2576 -1827
19 978 1003
20 884 747
21 417 288
22 3235 4256
23 2301 1493
24 781 1830
25 899 760
26 1764 1585
27 -951 4126
28 3162 3872
29 -2694 3915
30 1839 -2035
31 588 2067
32 3746 -528
33 4408 4260
34 1884 -1655
35 872 -2373
EOF